
Gurobi 10.0.1 (linux64) logging started Tue Sep 12 17:30:13 2023

Set parameter LogFile to value "./log/chr15c/chr15c.log"
Set parameter TimeLimit to value 180
Gurobi Optimizer version 10.0.1 build v10.0.1rc0 (linux64)

CPU model: 12th Gen Intel(R) Core(TM) i5-12600KF, instruction set [SSE2|AVX|AVX2]
Thread count: 8 physical cores, 16 logical processors, using up to 16 threads

Optimize a model with 30 rows, 225 columns and 450 nonzeros
Model fingerprint: 0xfa152523
Model has 2940 quadratic objective terms
Variable types: 0 continuous, 225 integer (225 binary)
Coefficient statistics:
  Matrix range     [1e+00, 1e+00]
  Objective range  [0e+00, 0e+00]
  QObjective range [8e+00, 3e+04]
  Bounds range     [1e+00, 1e+00]
  RHS range        [1e+00, 1e+00]
Found heuristic solution: objective 65654.000000
Presolve time: 0.01s
Presolved: 135 rows, 330 columns, 3600 nonzeros
Variable types: 0 continuous, 330 integer (225 binary)

Root relaxation: objective 0.000000e+00, 83 iterations, 0.00 seconds (0.00 work units)

    Nodes    |    Current Node    |     Objective Bounds      |     Work
 Expl Unexpl |  Obj  Depth IntInf | Incumbent    BestBd   Gap | It/Node Time

     0     0    0.00000    0   22 65654.0000    0.00000   100%     -    0s
H    0     0                    43166.000000    0.00000   100%     -    0s
H    0     0                    36742.000000    0.00000   100%     -    0s
H    0     0                    32572.000000    0.00000   100%     -    0s
     0     0    0.00000    0   33 32572.0000    0.00000   100%     -    0s
H    0     0                    24918.000000    0.00000   100%     -    0s
     0     0    0.00000    0   30 24918.0000    0.00000   100%     -    0s
     0     0    0.00000    0   21 24918.0000    0.00000   100%     -    0s
     0     0    0.00000    0   20 24918.0000    0.00000   100%     -    0s
     0     0    0.00000    0   28 24918.0000    0.00000   100%     -    0s
     0     0    0.00000    0   28 24918.0000    0.00000   100%     -    0s
     0     0    0.00000    0   26 24918.0000    0.00000   100%     -    0s
     0     0    0.00000    0   29 24918.0000    0.00000   100%     -    0s
H    0     0                    23630.000000    0.00000   100%     -    0s
H    0     0                    21990.000000    0.00000   100%     -    0s
H    0     0                    18984.000000    0.00000   100%     -    0s
     0     0    0.00000    0   20 18984.0000    0.00000   100%     -    0s
     0     0    0.00000    0   20 18984.0000    0.00000   100%     -    0s
     0     2    0.00000    0   20 18984.0000    0.00000   100%     -    0s
H  123   144                    13988.000000    0.00000   100%   7.8    0s
H  375   400                    12700.000000    0.00000   100%   9.5    0s
H  687   599                    12456.000000    0.00000   100%   8.4    0s
H 1814  1227                    12408.000000  700.90178  94.4%  11.2    0s
H 1870  1199                    12236.000000  924.38820  92.4%  10.8    1s
H 2000  1218                    9940.0000000 1155.91926  88.4%  10.1    1s
H 2277  1341                    9504.0000000 1377.22087  85.5%  20.8    2s
 42515 20148 3446.24812   59   68 9504.00000 2240.15349  76.4%  20.2    6s
 42837 20363 9124.00000   76  205 9504.00000 2627.59512  72.4%  20.0   10s
 74304 17365 7540.25729   84   75 9504.00000 6161.80122  35.2%  25.9   15s

Cutting planes:
  Gomory: 28
  Cover: 52
  Implied bound: 10
  Clique: 13
  MIR: 271
  StrongCG: 1
  Flow cover: 542
  GUB cover: 2
  Inf proof: 5
  Zero half: 3
  RLT: 9
  Relax-and-lift: 16

Explored 97473 nodes (2571612 simplex iterations) in 18.13 seconds (23.51 work units)
Thread count was 16 (of 16 available processors)

Solution count 10: 9504 9940 12236 ... 23630

Optimal solution found (tolerance 1.00e-04)
Best objective 9.504000000000e+03, best bound 9.504000000000e+03, gap 0.0000%
